*SENSE:Minimize
NAME          MODEL
ROWS
 N  OBJ
 L  C0000000
 L  C0000001
 G  C0000002
 L  C0000003
 L  C0000004
 G  C0000005
 G  C0000006
 G  C0000007
 G  C0000008
COLUMNS
    MARK      'MARKER'                 'INTORG'
    X0000000  C0000001   1.000000000000e+00
    X0000000  C0000002   1.000000000000e+00
    X0000000  C0000003  -1.995115000000e+06
    X0000000  C0000004   3.090163000000e+06
    X0000000  C0000005   3.090163000000e+06
    X0000000  C0000006   1.000000000000e+00
    MARK      'MARKER'                 'INTEND'
    MARK      'MARKER'                 'INTORG'
    X0000001  C0000001  -1.000000000000e+00
    X0000001  C0000002  -1.000000000000e+00
    X0000001  C0000003   1.995116000000e+06
    X0000001  C0000004  -2.817682000000e+06
    X0000001  C0000005  -2.817682000000e+06
    X0000001  C0000007   1.000000000000e+00
    MARK      'MARKER'                 'INTEND'
    MARK      'MARKER'                 'INTORG'
    X0000002  C0000004   1.000000000000e+00
    X0000002  C0000005   1.000000000000e+00
    X0000002  C0000008   1.000000000000e+00
    MARK      'MARKER'                 'INTEND'
    MARK      'MARKER'                 'INTORG'
    X0000003  C0000000   1.000000000000e+00
    X0000003  C0000001  -1.000000000000e+00
    X0000003  C0000002   1.000000000000e+00
    X0000003  C0000003  -1.000000000000e+00
    X0000003  C0000004  -1.000000000000e+00
    X0000003  C0000005   1.000000000000e+00
    X0000003  OBJ        1.000000000000e+00
    MARK      'MARKER'                 'INTEND'
RHS
    RHS       C0000000   0.000000000000e+00
    RHS       C0000001  -2.000000000000e+00
    RHS       C0000002  -2.000000000000e+00
    RHS       C0000003   3.990229000000e+06
    RHS       C0000004  -6.452809000000e+06
    RHS       C0000005  -6.452809000000e+06
    RHS       C0000006  -2.147483648000e+09
    RHS       C0000007  -2.147483648000e+09
    RHS       C0000008  -2.147483648000e+09
BOUNDS
 LO BND       X0000000  -2.110131534743e+09
 UP BND       X0000000   1.750222414313e+09
 LO BND       X0000001  -1.792957658517e+09
 UP BND       X0000001   2.083514169068e+09
 LO BND       X0000002  -9.667213875878e+08
 UP BND       X0000002   1.930942958479e+09
 FR BND       X0000003
ENDATA
